 596001
1169812
1034957
 479866
 523114
 451998
 200749
 219762
1822918
 469707
1512198
1224623
1939852
 967799
1298478
1526942
1179830
 210010
 259389
1810531
1730667
1533515
1601260
 494673
1608464
 739703
1832042
 234057
 249070
1259824
1017287
1785103
 216369
1972796
1689067
